
se = 80; % nombre de sessions
gr = 40; % nombre de grups de treball
cl = 12; % nombre de slots
minPapersPerSlot = 3; % minim nombre d'articles per sessio i slot
maxSesionsPar = 20; % maxim nombre de sessions paraleles

npMax = [6, 5, 6, 4, 5, 5, 3, 4, 4, 6, 3, 6]; % nombre maxim de papers per slot

np = [16, 19, 8, 3, 11, 3, 6, 15, 3, 12, 12, 16, 5, 10, 6, 9, 7, 16, 8, 14, 12, 13, 17, 17, 3, 19, 3, 5, 11, 15, 18, 3, 8, 3, 17, 7, 4, 8, 4, 10, 4, 3, 12, 11, 14, 19, 19, 5, 7, 11, 11, 3, 3, 8, 3, 11, 14, 11, 15, 18, 3, 3, 3, 3, 7, 17, 12, 17, 14, 8, 15, 13, 4, 6, 13, 18, 13, 7, 10, 14]; % nombre de papers acceptats a cada sessio

WG = [ {1}, {}, {2}, {}, {3}, {4,5,6}, {7}, {8,9}, {}, {10,11}, {12}, {13}, {14}, {15,16,17}, {18}, {}, {}, {19}, {}, {20}, {}, {}, {}, {21}, {22,23}, {24}, {25}, {26}, {}, {27}, {}, {}, {28}, {29,30,31}, {}, {32,33}, {34,35,36}, {37,38}, {}, {39}, {40}, {1}, {2,3,4}, {5}, {6}, {7}, {}, {8}, {9}, {10}, {11}, {}, {12}, {}, {13}, {14,15}, {}, {16}, {}, {}, {}, {17}, {18}, {19}, {}, {20,21}, {}, {}, {22,23}, {24}, {25}, {26,27}, {28}, {29,30}, {31,32}, {33,34,35}, {}, {36}, {37}, {38} ]; % grups per sessio

